### Initialization
atom_style      full
units           real

pair_style      lj/cut/coul/long 12.0 12.0
pair_modify     mix arithmetic
kspace_style    pppm 1e-4
bond_style      harmonic
angle_style     harmonic
dihedral_style  fourier
improper_style  cvff
special_bonds   amber

read_data       amorphous_polymer_solubility.lmps

neighbor        2.0 bin
neigh_modify    delay 0 every 1 check yes
dump            dump_Equilibration all custom 1 equil.lammpstrj id mol type q x y z ix iy iz
thermo          1
timestep        1
molecule        co2mol CH4_TraPPE_FF offset  10  14  23  10  3

### Perform Widom insertions (25,000)
reset_timestep  0
fix             fWIDOM all widom 10 25000 0 2468 300 mol co2mol
fix             fDENS all ave/time 1 1 10 f_fWIDOM[1] f_fWIDOM[2] f_fWIDOM[3] file CH4xcp.txt
fix             1 all langevin 300 300 1 2468 zero yes
fix             2 all nve
thermo_style    custom step temp pe etotal press vol density f_fWIDOM[1] f_fWIDOM[2] f_fWIDOM[3]

run             10 

unfix fWIDOM
unfix           1
unfix           2
undump          dump_Equilibration

